NAME: line_70_4
TYPE: TSP
COMMENT: line_70_4
DIMENSION: 70
EDGE_WEIGHT_TYPE: EUC_2D
NODE_COORD_SECTION
1 0.0 446.0
2 0.0 652.0
3 0.0 564.0
4 0.0 632.0
5 0.0 526.0
6 0.0 148.0
7 0.0 595.0
8 0.0 597.0
9 0.0 374.0
10 0.0 62.0
11 0.0 392.0
12 0.0 13.0
13 0.0 541.0
14 0.0 173.0
15 0.0 68.0
16 0.0 611.0
17 0.0 575.0
18 0.0 247.0
19 0.0 592.0
20 0.0 77.0
21 0.0 475.0
22 0.0 28.0
23 0.0 141.0
24 0.0 487.0
25 0.0 418.0
26 0.0 298.0
27 0.0 310.0
28 0.0 551.0
29 0.0 697.0
30 0.0 205.0
31 0.0 415.0
32 0.0 158.0
33 0.0 117.0
34 0.0 520.0
35 0.0 464.0
36 0.0 91.0
37 0.0 162.0
38 0.0 446.0
39 0.0 683.0
40 0.0 474.0
41 0.0 491.0
42 0.0 562.0
43 0.0 187.0
44 0.0 656.0
45 0.0 444.0
46 0.0 223.0
47 0.0 431.0
48 0.0 284.0
49 0.0 167.0
50 0.0 354.0
51 0.0 353.0
52 0.0 83.0
53 0.0 121.0
54 0.0 553.0
55 0.0 30.0
56 0.0 631.0
57 0.0 605.0
58 0.0 487.0
59 0.0 501.0
60 0.0 467.0
61 0.0 689.0
62 0.0 166.0
63 0.0 84.0
64 0.0 523.0
65 0.0 248.0
66 0.0 364.0
67 0.0 141.0
68 0.0 588.0
69 0.0 659.0
70 0.0 66.0
